
Gurobi 9.5.1 (linux64) logging started Sun Jun 19 11:57:45 2022

Set parameter LogFile to value "../results/logs/log_web-hudong.e_5_2_2022_06_19_11_04.log"
Gurobi Optimizer version 9.5.1 build v9.5.1rc2 (linux64)
Thread count: 8 physical cores, 8 logical processors, using up to 8 threads
Optimize a model with 80321 rows, 3949310 columns and 1502795 nonzeros
Model fingerprint: 0x91a6679b
Variable types: 0 continuous, 3949310 integer (3949310 binary)
Coefficient statistics:
  Matrix range     [1e+00, 5e+00]
  Objective range  [1e+00, 1e+00]
  Bounds range     [1e+00, 1e+00]
  RHS range        [1e+00, 2e+00]
Found heuristic solution: objective 1055322.0000
Presolve removed 46425 rows and 3894280 columns (presolve time = 5s) ...
Presolve removed 61798 rows and 3923442 columns (presolve time = 10s) ...
Presolve removed 61999 rows and 3923661 columns
Presolve time: 12.64s
Presolved: 18322 rows, 25649 columns, 75140 nonzeros
Variable types: 0 continuous, 25649 integer (23889 binary)
Found heuristic solution: objective 1055325.0000

Root simplex log...

Iteration    Objective       Primal Inf.    Dual Inf.      Time
       0    1.0635101e+06   2.041385e+03   0.000000e+00     13s
    5863    1.0563176e+06   0.000000e+00   0.000000e+00     13s

Root relaxation: objective 1.056318e+06, 5863 iterations, 0.04 seconds (0.04 work units)

    Nodes    |    Current Node    |     Objective Bounds      |     Work
 Expl Unexpl |  Obj  Depth IntInf | Incumbent    BestBd   Gap | It/Node Time

     0     0 1056317.59    0 1129 1055325.00 1056317.59  0.09%     -   13s
H    0     0                    1055328.0000 1056317.59  0.09%     -   14s
H    0     0                    1055331.0000 1056317.59  0.09%     -   14s
H    0     0                    1055337.0000 1056317.36  0.09%     -   14s
H    0     0                    1055338.0000 1056317.36  0.09%     -   14s
H    0     0                    1055339.0000 1055425.55  0.01%     -   14s
H    0     0                    1055341.0000 1055425.55  0.01%     -   14s
     0     0 1055379.24    0  114 1055341.00 1055379.24  0.00%     -   14s
     0     0 1055377.13    0  119 1055341.00 1055377.13  0.00%     -   16s
     0     0 1055377.13    0   74 1055341.00 1055377.13  0.00%     -   16s
     0     0 1055376.18    0   79 1055341.00 1055376.18  0.00%     -   16s
     0     0 1055375.85    0   75 1055341.00 1055375.85  0.00%     -   16s
     0     0 1055368.05    0   39 1055341.00 1055368.05  0.00%     -   16s
     0     0 1055367.69    0   36 1055341.00 1055367.69  0.00%     -   16s
     0     0 1055362.20    0   40 1055341.00 1055362.20  0.00%     -   16s
     0     0 1055362.00    0   38 1055341.00 1055362.00  0.00%     -   16s
     0     0 1055362.00    0   36 1055341.00 1055362.00  0.00%     -   16s
     0     0 1055362.00    0   36 1055341.00 1055362.00  0.00%     -   17s
     0     2 1055362.00    0   36 1055341.00 1055362.00  0.00%     -   17s
   170    10 1055357.02   26   54 1055341.00 1055357.02  0.00%   8.9   20s
H  180     9                    1055342.0000 1055356.68  0.00%  10.4   20s
H  318    13                    1055343.0000 1055348.50  0.00%  10.7   22s
*  364    25              63    1055344.0000 1055348.00  0.00%  11.0   22s
*  629    22              72    1055345.0000 1055347.55  0.00%   9.6   23s

Cutting planes:
  Gomory: 125
  Cover: 130
  Implied bound: 5
  MIR: 577
  StrongCG: 37
  GUB cover: 755
  Inf proof: 2
  Zero half: 83
  RLT: 150
  Relax-and-lift: 9

Explored 735 nodes (13821 simplex iterations) in 24.42 seconds (23.44 work units)
Thread count was 8 (of 8 available processors)

Solution count 10: 1.05534e+06 1.05534e+06 1.05534e+06 ... 1.05533e+06

Optimal solution found (tolerance 0.00e+00)
Best objective 1.055345000000e+06, best bound 1.055345000000e+06, gap 0.0000%
